%mem=128GB
%nprocshared=32
%chk=result/data_human/OPS_human_6.chk
#p opt B3LYP/6-31G(d)

Generated by RDKit

0 1
C    6.629733    -2.332563    -1.069098
C    5.923287    -1.099651    -0.586449
C    6.658123    0.039892    -0.233697
C    6.001854    1.206438    0.180053
C    6.794937    2.407885    0.603583
C    4.601479    1.223609    0.256598
C    3.845670    0.096852    -0.116383
C    2.361659    0.135235    -0.049618
C    1.480796    -0.785601    -0.648437
C    0.158800    -0.446692    -0.385699
S    -1.321906    -1.100357    -0.811763
C    -2.230129    0.089448    0.017702
C    -3.705293    0.207479    0.065234
N    -4.305789    1.350724    0.491051
C    -5.615698    1.079848    0.369581
C    -6.683406    1.923585    0.666145
C    -7.984452    1.433475    0.453679
C    -8.182798    0.127488    -0.046219
C    -7.082351    -0.700597    -0.336099
C    -5.801351    -0.183920    -0.110277
N    -4.598380    -0.759769    -0.300100
C    -4.327442    -2.116000    -0.779219
C    -1.352956    1.009094    0.614925
C    -0.030309    0.663668    0.365529
S    1.449169    1.329941    0.772503
C    4.521631    -1.061504    -0.544222
H    6.055115    -3.244210    -0.799355
H    6.739192    -2.286720    -2.172700
H    7.637217    -2.414869    -0.608323
H    7.740769    0.018321    -0.279493
H    6.999365    2.349582    1.693001
H    6.234373    3.342757    0.389468
H    7.760274    2.455083    0.055862
H    4.106887    2.125764    0.593751
H    1.769275    -1.635354    -1.250724
H    -6.518609    2.923637    1.045823
H    -8.838138    2.061548    0.672582
H    -9.188177    -0.238616    -0.208830
H    -7.241563    -1.696476    -0.724174
H    -3.611995    -2.620780    -0.097535
H    -3.911665    -2.073961    -1.807311
H    -5.248539    -2.730831    -0.797570
H    -1.657689    1.874171    1.189192
H    3.969029    -1.947051    -0.827096

