%mem=128GB
%nprocshared=32
%chk=result/data_human/OPS_human_0.chk
#p opt B3LYP/6-31G(d)

Generated by RDKit

0 1
C    -3.682624    -4.567414    1.457439
C    -3.123486    -3.257053    0.988437
C    -2.212799    -3.218345    -0.077434
C    -1.661935    -2.002264    -0.490640
C    -2.002809    -0.806385    0.165142
N    -1.424904    0.449937    -0.250519
C    -2.241295    1.636943    -0.345848
C    -1.729075    2.884332    0.050135
C    -2.515929    4.035652    -0.043040
C    -3.822533    3.960995    -0.547165
C    -4.679928    5.190114    -0.609801
C    -4.343200    2.715902    -0.928781
C    -3.556949    1.564080    -0.836067
C    -0.045238    0.506350    -0.664490
C    0.399882    1.121719    -1.818042
C    1.763270    0.918847    -1.859450
C    2.094634    0.185198    -0.732236
C    3.466921    -0.266506    -0.417732
C    3.810542    -1.434969    0.265566
C    5.187148    -1.453500    0.262428
C    6.093570    -2.371294    0.782026
N    7.426700    -2.126156    0.610814
C    7.881555    -1.016364    -0.053184
C    6.973613    -0.083879    -0.587589
C    5.617779    -0.342890    -0.405379
N    4.577901    0.390182    -0.834270
N    0.986421    -0.047458    0.013308
C    0.919361    -0.673652    1.334949
C    -2.901979    -0.852132    1.244127
C    -3.452919    -2.068563    1.656221
H    -4.692790    -4.427253    1.897871
H    -3.773686    -5.280226    0.610289
H    -3.009569    -5.001916    2.225712
H    -1.930070    -4.129515    -0.590101
H    -0.970807    -1.992711    -1.323835
H    -0.723818    2.962135    0.444720
H    -2.106206    4.985049    0.279143
H    -5.412891    5.114608    -1.441137
H    -4.057355    6.093798    -0.782502
H    -5.229041    5.306150    0.347822
H    -5.356984    2.636858    -1.301653
H    -3.971760    0.615958    -1.153862
H    -0.200248    1.640911    -2.553485
H    2.434602    1.250851    -2.640376
H    3.153558    -2.189584    0.675071
H    5.759176    -3.255878    1.307642
H    8.945573    -0.859251    -0.168206
H    7.315581    0.795001    -1.118590
H    4.621816    1.282517    -1.375501
H    1.838255    -0.452202    1.916356
H    0.066099    -0.265868    1.916048
H    0.796290    -1.771008    1.225312
H    -3.163100    0.053742    1.776414
H    -4.134322    -2.083592    2.497921

