%mem=128GB
%nprocshared=32
%chk=result/data_human/OPS_human_4.chk
#p opt B3LYP/6-31G(d)

Generated by RDKit

0 1
C    -2.647728    -3.394503    -1.314857
C    -3.245590    -2.133137    -1.264631
C    -2.466285    -0.996563    -1.028226
C    -1.079593    -1.111871    -0.830809
N    -0.290554    0.071971    -0.599883
O    -0.670945    1.236195    -1.248811
C    -0.531488    2.513824    -0.692587
C    -0.394148    2.760634    0.673165
S    -0.286003    4.424579    0.875561
C    -0.425163    4.760082    -0.764590
N    -0.556566    3.622249    -1.479853
C    0.951029    0.014173    0.133383
C    2.093726    0.666060    -0.358836
C    3.292090    0.628315    0.360378
C    3.358067    -0.057496    1.576187
C    2.225133    -0.705502    2.075541
C    1.024831    -0.669442    1.359627
C    -0.485120    -2.387654    -0.895723
C    -1.268659    -3.521176    -1.132799
H    -3.252360    -4.273143    -1.498920
H    -4.313875    -2.035581    -1.408739
H    -2.946080    -0.026873    -0.986907
H    -0.383929    2.026088    1.466326
H    -0.418351    5.747349    -1.205654
H    2.056551    1.196856    -1.301610
H    4.169843    1.130652    -0.025122
H    4.286333    -0.085296    2.132024
H    2.275882    -1.232512    3.019511
H    0.150052    -1.163024    1.763649
H    0.584073    -2.507129    -0.778695
H    -0.805174    -4.498126    -1.180601

