%mem=128GB
%nprocshared=32
%chk=result/data_human/OPS_human_1.chk
#p opt B3LYP/6-31G(d)

Generated by RDKit

0 1
C    6.122000    2.571525    -1.058598
C    7.439753    2.116462    -1.153669
C    7.801365    0.874733    -0.603437
N    9.168445    0.425568    -0.652022
C    9.891661    0.255368    0.617057
C    11.213698    -0.495635    0.416959
O    11.916074    0.024105    -0.697337
C    11.206835    -0.305251    -1.875746
C    9.883411    0.464969    -1.940516
C    6.818954    0.088887    0.024259
C    5.497913    0.544330    0.113220
C    5.141994    1.794738    -0.428384
O    3.849842    2.325353    -0.328432
C    2.668985    1.586563    -0.217935
N    1.483200    2.174463    0.093649
C    0.635020    1.134021    0.051377
C    -0.746906    1.143093    0.297063
C    -1.379878    -0.101506    0.184861
O    -2.636541    -0.394325    0.366800
C    -2.735098    -1.697262    0.150030
O    -3.925515    -2.416876    0.278903
C    -5.199795    -1.838547    0.365170
C    -6.200488    -2.519425    1.073571
C    -7.484452    -1.975286    1.192174
C    -7.794076    -0.741672    0.590257
N    -9.124176    -0.186998    0.694565
C    -9.746596    -0.023450    2.015162
C    -11.272703    -0.027329    1.880145
O    -11.691920    0.917276    0.916960
C    -11.221252    0.532453    -0.359118
C    -9.691089    0.584427    -0.417366
C    -6.794746    -0.075252    -0.142033
C    -5.511741    -0.617935    -0.256242
N    -1.554774    -2.293989    -0.169544
C    -0.702989    -1.254749    -0.148035
C    0.680998    -1.264103    -0.396228
C    1.317698    -0.017050    -0.279054
O    2.579188    0.283099    -0.446962
H    5.863398    3.537777    -1.470979
H    8.183479    2.750245    -1.623757
H    10.091418    1.259401    1.057029
H    9.271880    -0.323289    1.336679
H    11.838902    -0.362034    1.324763
H    11.032385    -1.594799    0.316388
H    11.829991    -0.023131    -2.753127
H    11.025486    -1.405221    -1.954858
H    10.090673    1.527446    -2.220298
H    9.243632    0.008819    -2.732032
H    7.078869    -0.871037    0.454843
H    4.774926    -0.065015    0.639431
H    -1.289050    2.042518    0.558225
H    -5.979628    -3.475887    1.539382
H    -8.243795    -2.531174    1.729883
H    -9.416096    0.944419    2.455195
H    -9.450369    -0.839577    2.706382
H    -11.721051    0.251467    2.854919
H    -11.637551    -1.050664    1.632122
H    -11.588691    -0.482116    -0.633524
H    -11.628844    1.242786    -1.105162
H    -9.350839    1.642004    -0.344166
H    -9.355100    0.163272    -1.388980
H    -7.005961    0.867935    -0.628285
H    -4.778546    -0.090349    -0.848004
H    1.218185    -2.167617    -0.653595

