%mem=128GB
%nprocshared=32
%chk=result/data_human/OPS_human_5.chk
#p opt B3LYP/6-31G(d)

Generated by RDKit

0 1
O    -5.713989    -0.087492    -0.780962
C    -4.461113    -0.099085    -0.615697
C    -3.852501    0.861642    0.205005
C    -4.624814    1.847985    0.852655
C    -4.018498    2.802162    1.667199
C    -2.639246    2.789089    1.848752
C    -1.856500    1.822065    1.217570
C    -2.444536    0.837844    0.382838
N    -1.682512    -0.125452    -0.248307
C    -0.251993    -0.139058    -0.059123
C    0.316656    -0.876315    0.986706
N    1.664324    -0.886721    1.161687
C    2.501785    -0.192983    0.341766
C    1.968803    0.564595    -0.726718
C    2.826440    1.280865    -1.574068
C    4.208260    1.249176    -1.366767
C    4.746358    0.500811    -0.309907
C    6.128783    0.456327    -0.085560
C    6.636714    -0.297056    0.974380
C    5.758057    -0.999968    1.801521
N    4.418422    -0.949914    1.574894
C    3.889480    -0.224862    0.550022
C    0.581912    0.584689    -0.919262
C    -2.272013    -1.075084    -1.059266
C    -1.505429    -2.070571    -1.716996
C    -2.115007    -3.023615    -2.533292
C    -3.494192    -3.011309    -2.715406
C    -4.273688    -2.045285    -2.082366
C    -3.678064    -1.072496    -1.253085
H    -5.700589    1.885216    0.731481
H    -4.620939    3.554807    2.159445
H    -2.172447    3.532421    2.482313
H    -0.789689    1.856473    1.391841
H    -0.314720    -1.440907    1.660007
H    2.428372    1.864452    -2.395628
H    4.855655    1.808730    -2.031411
H    6.812027    1.000992    -0.726205
H    7.703340    -0.336163    1.153845
H    6.141888    -1.586550    2.625410
H    0.145579    1.156552    -1.729903
H    -0.430656    -2.124420    -1.609277
H    -1.513323    -3.775855    -3.027208
H    -3.961841    -3.753247    -3.349873
H    -5.344553    -2.062486    -2.244572

